(set-logic QF_AUFBV)
(declare-fun bvlambda_1_ () (_ BitVec 1))
(declare-fun bvlambda_2_ () (_ BitVec 9))
(declare-fun bvlambda_3_ () (_ BitVec 1))
(declare-fun bvlambda_4_ () (_ BitVec 3))
(declare-fun bvlambda_5_ () (_ BitVec 1))
(declare-fun bvlambda_6_ () (_ BitVec 1))
(declare-fun a22 () (Array (_ BitVec 4) (_ BitVec 1)))
(assert
(let (($e2 (_ bv232 9)))
(let (($e3 (_ bv0 11)))
(let (($e4 (_ bv0 4)))
(let (($e5 (_ bv10 4)))
(let (($e6 (_ bv0 3)))
(let (($e7 (_ bv14 4)))
(let (($e8 (_ bv0 15)))
(let (($e9 (_ bv0 16)))
(let (($e10 (_ bv30 5)))
(let (($e11 (_ bv0 8)))
(let (($e12 (_ bv510 9)))
(let (($e13 (_ bv278 9)))
(let (($e14 (_ bv0 7)))
(let (($e15 (_ bv232 8)))
(let (($e23 (concat $e4 bvlambda_3_)))
(let (($e24 (concat $e23 bvlambda_4_)))
(let (($e25 (concat $e24 bvlambda_5_)))
(let (($e26 (bvudiv $e25 (bvnot $e2))))
(let (($e27 ((_ extract 0 0) $e26)))
(let (($e28 (ite (= bvlambda_5_ $e27) #b1 #b0)))
(let (($e29 ((_ extract 3 1) $e26)))
(let (($e30 (ite (= bvlambda_4_ $e29) #b1 #b0)))
(let (($e31 ((_ extract 4 4) $e26)))
(let (($e32 (ite (= bvlambda_3_ $e31) #b1 #b0)))
(let (($e33 (bvand $e32 $e30)))
(let (($e34 (bvand $e33 $e28)))
(let (($e35 ((_ extract 8 5) $e26)))
(let (($e36 (ite (= $e4 $e35) #b1 #b0)))
(let (($e37 (bvand $e36 $e34)))
(let (($e38 (concat bvlambda_1_ bvlambda_2_)))
(let (($e39 (concat $e38 bvlambda_3_)))
(let (($e40 (concat $e39 bvlambda_4_)))
(let (($e41 (concat $e40 bvlambda_5_)))
(let (($e42 (concat $e41 bvlambda_6_)))
(let (($e43 (concat $e3 bvlambda_3_)))
(let (($e44 (concat $e43 bvlambda_4_)))
(let (($e45 (concat $e44 bvlambda_5_)))
(let (($e46 (concat (bvnot $e3) bvlambda_3_)))
(let (($e47 (concat $e46 bvlambda_4_)))
(let (($e48 (concat $e47 bvlambda_5_)))
(let (($e49 (ite (= #b1 bvlambda_3_) $e48 $e45)))
(let (($e50 (ite (bvult $e49 $e42) #b1 #b0)))
(let (($e51 (concat (bvnot $e8) (bvnot $e50))))
(let (($e52 (concat $e8 (bvnot $e50))))
(let (($e53 (ite (= #b1 $e50) $e52 $e51)))
(let (($e54 ((_ extract 0 0) $e53)))
(let (($e55 (ite (= bvlambda_6_ $e54) #b1 #b0)))
(let (($e56 ((_ extract 1 1) $e53)))
(let (($e57 (ite (= bvlambda_5_ $e56) #b1 #b0)))
(let (($e58 ((_ extract 4 2) $e53)))
(let (($e59 (ite (= bvlambda_4_ $e58) #b1 #b0)))
(let (($e60 ((_ extract 5 5) $e53)))
(let (($e61 (ite (= bvlambda_3_ $e60) #b1 #b0)))
(let (($e62 ((_ extract 14 6) $e53)))
(let (($e63 (ite (= bvlambda_2_ $e62) #b1 #b0)))
(let (($e64 ((_ extract 15 15) $e53)))
(let (($e65 (ite (= bvlambda_1_ $e64) #b1 #b0)))
(let (($e66 (bvand $e65 $e63)))
(let (($e67 (bvand $e66 $e61)))
(let (($e68 (bvand $e67 $e59)))
(let (($e69 (bvand $e68 $e57)))
(let (($e70 (bvand $e69 $e55)))
(let (($e71 (concat $e8 $e70)))
(let (($e72 (concat (bvnot $e8) $e70)))
(let (($e73 (ite (= #b1 $e70) $e72 $e71)))
(let (($e74 ((_ extract 15 15) $e73)))
(let (($e75 (ite (= bvlambda_1_ $e74) #b1 #b0)))
(let (($e76 ((_ extract 14 0) $e73)))
(let (($e77 (concat bvlambda_2_ bvlambda_3_)))
(let (($e78 (concat $e77 bvlambda_4_)))
(let (($e79 (concat $e78 bvlambda_5_)))
(let (($e80 (concat $e79 bvlambda_6_)))
(let (($e81 (ite (bvult $e80 $e76) #b1 #b0)))
(let (($e82 (bvand $e81 $e75)))
(let (($e83 (bvand bvlambda_1_ (bvnot $e74))))
(let (($e84 (bvand (bvnot $e83) (bvnot $e82))))
(let (($e85 (bvand (bvnot $e84) (bvnot $e37))))
(let (($e86 (concat $e4 $e70)))
(let (($e87 (concat (bvnot $e4) $e70)))
(let (($e88 (ite (= #b1 $e70) $e87 $e86)))
(let (($e89 (concat bvlambda_3_ bvlambda_4_)))
(let (($e90 (concat $e89 bvlambda_5_)))
(let (($e91 (ite (bvult $e90 $e88) #b1 #b0)))
(let (($e92 (bvand $e84 (bvnot $e91))))
(let (($e93 (bvand (bvnot $e92) (bvnot $e85))))
(let (($e94 (concat bvlambda_4_ bvlambda_5_)))
(let (($e95 (select a22 $e94)))
(let (($e96 (concat $e6 $e95)))
(let (($e97 (store a22 (bvnot $e5) (bvnot $e50))))
(let (($e98 (select $e97 $e96)))
(let (($e99 (concat $e4 $e98)))
(let (($e100 (concat (bvnot $e4) $e98)))
(let (($e101 (ite (= #b1 $e98) $e100 $e99)))
(let (($e102 ((_ extract 4 4) $e101)))
(let (($e103 (ite (= bvlambda_3_ $e102) #b1 #b0)))
(let (($e104 (concat (bvnot $e6) (bvnot $e95))))
(let (($e105 (bvand (bvnot $e94) $e104)))
(let (($e106 ((_ extract 3 0) $e101)))
(let (($e107 (ite (bvult $e106 (bvnot $e105)) #b1 #b0)))
(let (($e108 (bvand $e107 $e103)))
(let (($e109 (bvand (bvnot bvlambda_3_) $e102)))
(let (($e110 (bvand (bvnot $e109) (bvnot $e108))))
(let (($e111 ((_ extract 7 0) $e26)))
(let (($e112 (select a22 (bvnot $e7))))
(let (($e113 (concat $e6 $e112)))
(let (($e114 (select $e97 $e113)))
(let (($e115 (concat $e8 $e114)))
(let (($e116 (concat (bvnot $e8) $e114)))
(let (($e117 (ite (= #b1 $e114) $e116 $e115)))
(let (($e118 ((_ extract 15 15) $e117)))
(let (($e119 (ite (= bvlambda_1_ $e118) #b1 #b0)))
(let (($e120 ((_ extract 14 0) $e117)))
(let (($e121 (ite (bvult $e120 $e80) #b1 #b0)))
(let (($e122 (bvand $e121 $e119)))
(let (($e123 (bvand (bvnot bvlambda_1_) $e118)))
(let (($e124 (bvand (bvnot $e123) (bvnot $e122))))
(let (($e125 (concat $e14 (bvnot $e124))))
(let (($e126 (ite (bvult $e125 $e111) #b1 #b0)))
(let (($e127 ((_ extract 8 8) $e26)))
(let (($e128 (bvand (bvnot $e127) $e126)))
(let (($e129 (bvand (bvnot $e128) $e110)))
(let (($e130 (concat $e6 $e114)))
(let (($e131 (concat (bvnot $e6) $e114)))
(let (($e132 (ite (= #b1 $e114) $e131 $e130)))
(let (($e133 (store a22 $e89 $e112)))
(let (($e134 (select $e133 $e132)))
(let (($e135 (concat $e11 $e134)))
(let (($e136 (concat $e135 $e134)))
(let (($e137 (concat $e136 $e134)))
(let (($e138 (concat $e137 $e134)))
(let (($e139 (concat $e138 $e134)))
(let (($e140 (concat $e139 $e134)))
(let (($e141 (concat $e140 $e134)))
(let (($e142 (concat $e141 $e134)))
(let (($e143 (ite (bvult $e142 $e42) #b1 #b0)))
(let (($e144 (bvand (bvnot $e143) $e129)))
(let (($e145 (concat (bvnot $e8) (bvnot $e124))))
(let (($e146 (concat $e8 (bvnot $e124))))
(let (($e147 (ite (= #b1 $e124) $e146 $e145)))
(let (($e148 ((_ extract 15 15) $e147)))
(let (($e149 (ite (= bvlambda_1_ $e148) #b1 #b0)))
(let (($e150 ((_ extract 14 0) $e147)))
(let (($e151 (ite (bvult $e80 $e150) #b1 #b0)))
(let (($e152 (bvand $e151 $e149)))
(let (($e153 (bvand bvlambda_1_ (bvnot $e148))))
(let (($e154 (bvand (bvnot $e153) (bvnot $e152))))
(let (($e155 (bvand (bvnot $e154) (bvnot $e144))))
(let (($e156 (bvand $e154 $e144)))
(let (($e157 (bvand (bvnot $e156) (bvnot $e155))))
(let (($e158 (bvand (bvnot $e157) (bvnot $e93))))
(let (($e159 (bvshl $e42  ((_ zero_extend 12) $e94))))
(let (($e160 (ite (= #b1 bvlambda_3_) $e9 $e159)))
(let (($e161 (ite (bvult $e42 $e160) #b1 #b0)))
(let (($e162 (bvand $e161 $e157)))
(let (($e163 (bvand (bvnot $e162) (bvnot $e158))))
(let (($e164 (ite (bvult $e135 $e26) #b1 #b0)))
(let (($e165 (bvand $e98 $e124)))
(let (($e166 (concat $e11 $e165)))
(let (($e167 (concat (bvnot $e11) $e165)))
(let (($e168 (ite (= #b1 $e165) $e167 $e166)))
(let (($e169 (concat $e11 $e98)))
(let (($e170 (bvudiv $e169 (bvnot $e13))))
(let (($e171 (bvadd (bvnot $e12) (bvnot $e170))))
(let (($e172 (ite (bvult $e171 $e168) #b1 #b0)))
(let (($e173 (bvand (bvnot $e172) $e164)))
(let (($e174 (ite (= $e173 $e163) #b1 #b0)))
(let (($e175 (ite (bvult (bvnot $e2) $e26) #b1 #b0)))
(let (($e176 (bvand (bvnot $e175) (bvnot $e174))))
(let (($e177 (concat $e6 (bvnot $e124))))
(let (($e178 (ite (bvult $e177 $e94) #b1 #b0)))
(let (($e179 (bvand (bvnot bvlambda_3_) $e178)))
(let (($e180 (bvand (bvnot $e179) (bvnot $e176))))
(let (($e181 (concat $e4 $e134)))
(let (($e182 (ite (bvult $e90 $e181) #b1 #b0)))
(let (($e183 (concat (bvnot $e4) (bvnot $e124))))
(let (($e184 (concat $e4 (bvnot $e124))))
(let (($e185 (ite (= #b1 $e124) $e184 $e183)))
(let (($e186 ((_ extract 4 4) $e185)))
(let (($e187 (ite (= bvlambda_3_ $e186) #b1 #b0)))
(let (($e188 ((_ extract 3 0) $e185)))
(let (($e189 (ite (bvult $e188 $e94) #b1 #b0)))
(let (($e190 (bvand $e189 $e187)))
(let (($e191 (bvand (bvnot bvlambda_3_) $e186)))
(let (($e192 (bvand (bvnot $e191) (bvnot $e190))))
(let (($e193 (bvand $e192 $e182)))
(let (($e194 (bvand $e114 $e124)))
(let (($e195 (concat (bvnot $e4) bvlambda_3_)))
(let (($e196 (concat $e195 bvlambda_4_)))
(let (($e197 (concat $e196 bvlambda_5_)))
(let (($e198 (ite (= #b1 bvlambda_3_) $e197 $e25)))
(let (($e199 (bvand (bvnot $e26) (bvnot $e198))))
(let (($e200 (ite (bvult (bvnot $e199) $e135) #b1 #b0)))
(let (($e201 (bvand $e200 (bvnot $e194))))
(let (($e202 (concat (bvnot $e11) $e134)))
(let (($e203 (ite (= #b1 $e134) $e202 $e135)))
(let (($e204 ((_ extract 7 0) $e203)))
(let (($e205 (ite (bvult $e204 (bvnot $e15)) #b1 #b0)))
(let (($e206 ((_ extract 8 8) $e203)))
(let (($e207 (bvand $e206 $e205)))
(let (($e208 (bvand (bvnot $e207) $e201)))
(let (($e209 (bvand $e208 $e193)))
(let (($e210 (bvand (bvnot $e208) (bvnot $e193))))
(let (($e211 (bvand (bvnot $e210) (bvnot $e209))))
(let (($e212 (concat $e134 $e134)))
(let (($e213 (concat $e212 $e134)))
(let (($e214 (concat $e213 $e134)))
(let (($e215 (concat $e214 $e134)))
(let (($e216 (concat $e215 $e134)))
(let (($e217 (concat $e216 $e134)))
(let (($e218 (concat $e217 $e134)))
(let (($e219 (ite (bvult $e218 $e125) #b1 #b0)))
(let (($e220 (bvand (bvnot $e219) $e211)))
(let (($e221 (ite (bvult $e169 (bvnot $e199)) #b1 #b0)))
(let (($e222 (bvadd (bvnot $e10) (bvnot $e90))))
(let (($e223 (ite (= #b1 bvlambda_3_) $e222 $e90)))
(let (($e224 (concat $e4 $e112)))
(let (($e225 (bvudiv $e224 $e223)))
(let (($e226 (bvadd (bvnot $e10) (bvnot $e225))))
(let (($e227 (ite (= #b1 bvlambda_3_) $e226 $e225)))
(let (($e228 ((_ extract 0 0) $e227)))
(let (($e229 (ite (= $e165 $e228) #b1 #b0)))
(let (($e230 ((_ extract 4 1) $e227)))
(let (($e231 (ite (= $e4 $e230) #b1 #b0)))
(let (($e232 (bvand $e231 $e229)))
(let (($e233 (ite (= $e232 (bvnot $e221)) #b1 #b0)))
(let (($e234 ((_ extract 8 8) $e171)))
(let (($e235 (concat $e11 $e112)))
(let (($e236 (concat (bvnot $e11) $e112)))
(let (($e237 (ite (= #b1 $e112) $e236 $e235)))
(let (($e238 ((_ extract 8 8) $e237)))
(let (($e239 (ite (= $e238 $e234) #b1 #b0)))
(let (($e240 ((_ extract 7 0) $e237)))
(let (($e241 ((_ extract 7 0) $e171)))
(let (($e242 (ite (bvult $e241 $e240) #b1 #b0)))
(let (($e243 (bvand $e242 $e239)))
(let (($e244 (bvand (bvnot $e238) $e234)))
(let (($e245 (bvand (bvnot $e244) (bvnot $e243))))
(let (($e246 (bvand $e245 (bvnot $e233))))
(let (($e247 ((_ extract 4 4) $e227)))
(let (($e248 (ite (= $e102 $e247) #b1 #b0)))
(let (($e249 ((_ extract 3 0) $e227)))
(let (($e250 (ite (bvult $e106 $e249) #b1 #b0)))
(let (($e251 (bvand $e250 $e248)))
(let (($e252 (bvand $e102 (bvnot $e247))))
(let (($e253 (bvand (bvnot $e252) (bvnot $e251))))
(let (($e254 (concat (bvnot $e11) $e98)))
(let (($e255 (ite (= #b1 $e98) $e254 $e169)))
(let (($e256 (ite (bvult $e255 (bvnot $e2)) #b1 #b0)))
(let (($e257 (ite (= $e256 $e253) #b1 #b0)))
(let (($e258 (bvand (bvnot $e257) (bvnot $e246))))
(let (($e259 (ite (= $e258 $e220) #b1 #b0)))
(let (($e260 (ite (= $e6 bvlambda_4_) #b1 #b0)))
(let (($e261 (bvand (bvnot bvlambda_3_) $e260)))
(let (($e262 (bvand (bvnot bvlambda_5_) $e261)))
(let (($e263 (ite (= (bvnot $e6) bvlambda_4_) #b1 #b0)))
(let (($e264 (bvand bvlambda_3_ $e263)))
(let (($e265 (bvand bvlambda_5_ $e264)))
(let (($e266 (bvand (bvnot $e265) (bvnot $e262))))
(let (($e267 (bvand $e266 (bvnot $e259))))
(let (($e268 (bvand $e267 (bvnot $e180))))
 (not (= $e268 #b0)))))))))))))))))))))))))))))))))))))))))))))))))))))))))))))))))))))))))))))))))))))))))))))))))))))))))))))))))))))))))))))))))))))))))))))))))))))))))))))))))))))))))))))))))))))))))))))))))))))))))))))))))))))))))))))))))))))))))))))))))))))))))))))))))))))))
(check-sat)
(exit)
